sat

(objectives
 ((bvadd PriceProv6 (bvadd PriceProv5 (bvadd PriceProv4 (bvadd PriceProv3 (bvadd PriceProv1 PriceProv2))))) (_ bv12832 32))
)
;; statistics
(
 :cnf-variables 536
 :cnf-literals 1335
 :cnf-clauses 640
 :sat-checks 7
 :sat-restarts 15
 :sat-decisions 7792
 :sat-random-decisions 5
 :sat-propagations 49031574
 :sat-theory-propagations 3
 :sat-watched-clauses-visited 52759351
 :sat-binary-watched-clauses-visited 34356697
 :sat-conflicts 3023
 :sat-theory-conflicts 0
 :theory-necessary-interface-equalities 0
 :theory-extra-interface-equalities 0
 :euf-total-calls 9111
 :euf-complete-calls 6
 :euf-conflicts 0
 :euf-implications 3
 :euf-explanations 0
 :euf-egraph-nodes-created 10121
 :euf-egraph-nodes-deleted 8268
 :euf-num-asserted-equalities 134241
 :euf-num-asserted-inequalities 54241
 :euf-num-merges 287113
 :euf-num-merges-undone 287113
 :euf-num-atoms-retold 1856
 :la-total-calls 9111
 :la-complete-calls 6
 :la-conflicts 0
 :la-implications 0
 :la-explanations 0
 :la-num-equalities-split 0
 :la-num-tableau-rows 0
 :la-num-tableau-variables 0
 :bv-total-calls 9111
 :bv-complete-calls 6
 :bv-conflicts 0
 :bv-implications 0
 :bv-explanations 0
 :fp-total-calls 9111
 :fp-complete-calls 6
 :fp-conflicts 0
 :fp-implications 0
 :fp-explanations 0
 :arr-total-calls 9111
 :arr-complete-calls 6
 :arr-conflicts 0
 :arr-implications 0
 :arr-explanations 0
 :arr-write-lemmas-added 0
 :arr-row-lemmas-added 0
 :arr-ext-lemmas-added 0
 :arr-const-lemmas-added 0
 :na-total-calls 9111
 :na-complete-calls 6
 :na-conflicts 0
 :na-implications 0
 :na-explanations 0
 :na-num_nonlinear_multiplications 0
 :na-num_axiom_checks 0
 :na-num_zero_lemmas 0
 :na-num_sign_lemmas 0
 :na-num_neutral_lemmas 0
 :na-num_proportionality_lemmas 0
 :na-num_bound_lemmas 0
 :na-num_tangent_lemmas 0
 :na-num_monotonicity_lemmas 0
 :na-num_sat_checks 0
 :na-axiom_check_time 0.000
 :na-sat_check_time 0.000
 :time-seconds 5.990
 :memory-mb 71.541
)
